proyfinal/src/viki/013/experimentInOfficeAgust.take6.output/736a8391-6734-4f61-9178-2b7a952cf02c.als.dat
{'cnf.clauses': '118081',
 'cnf.totvars': '69608',
 'conflict literals': '31',
 'conflicts': '15',
 'decisions': '5739',
 'memused.mb': '15.46',
 'outcome': 'UNSAT',
 'propagations': '29101',
 'restarts': '1',
 'solver.msecs': 31,
 'task.msecs': 84}
