proyfinal/src/viki/013/experimentInOfficeAgust.take6.output/736a8391-6734-4f61-9178-2b7a952cf02c.als.out
Reading from standard input... Use '--help' for help.
============================[ Problem Statistics ]=============================
|                                                                             |
|  Number of variables:         69608                                         |
|  Number of clauses:          118081                                         |
|  Parse time:                   0.02 s                                       |
|                                                                             |
============================[ Search Statistics ]==============================
| Conflicts |          ORIGINAL         |          LEARNT          | Progress |
|           |    Vars  Clauses Literals |    Limit  Clauses Lit/Cl |          |
===============================================================================
===============================================================================
restarts              : 1
conflicts             : 15             (474 /sec)
decisions             : 5739           (0.00 % random) (181253 /sec)
propagations          : 29101          (919085 /sec)
conflict literals     : 31             (0.00 % deleted)
Memory used           : 15.46 MB
CPU time              : 0.031663 s

UNSATISFIABLE
